c CNF file corresponding to a (partial) station packing problem.
p cnf 1585 171
1 2 3 4 5 6 7 8 9 10 11 12 13 14 0
-1 -2 0
-1 -3 0
-1 -4 0
-1 -5 0
-1 -6 0
-1 -7 0
-1 -8 0
-1 -9 0
-1 -10 0
-1 -11 0
-1 -12 0
-1 -13 0
-1 -14 0
-2 -3 0
-2 -4 0
-2 -5 0
-2 -6 0
-2 -7 0
-2 -8 0
-2 -9 0
-2 -10 0
-2 -11 0
-2 -12 0
-2 -13 0
-2 -14 0
-3 -4 0
-3 -5 0
-3 -6 0
-3 -7 0
-3 -8 0
-3 -9 0
-3 -10 0
-3 -11 0
-3 -12 0
-3 -13 0
-3 -14 0
-4 -5 0
-4 -6 0
-4 -7 0
-4 -8 0
-4 -9 0
-4 -10 0
-4 -11 0
-4 -12 0
-4 -13 0
-4 -14 0
-5 -6 0
-5 -7 0
-5 -8 0
-5 -9 0
-5 -10 0
-5 -11 0
-5 -12 0
-5 -13 0
-5 -14 0
-6 -7 0
-6 -8 0
-6 -9 0
-6 -10 0
-6 -11 0
-6 -12 0
-6 -13 0
-6 -14 0
-7 -8 0
-7 -9 0
-7 -10 0
-7 -11 0
-7 -12 0
-7 -13 0
-7 -14 0
-8 -9 0
-8 -10 0
-8 -11 0
-8 -12 0
-8 -13 0
-8 -14 0
-9 -10 0
-9 -11 0
-9 -12 0
-9 -13 0
-9 -14 0
-10 -11 0
-10 -12 0
-10 -13 0
-10 -14 0
-11 -12 0
-11 -13 0
-11 -14 0
-12 -13 0
-12 -14 0
-13 -14 0
-1581 -10 0
-1580 -9 0
-6 -1577 0
-5 -1576 0
-1585 -14 0
-13 -1584 0
-1582 -11 0
-1578 -7 0
-1579 -8 0
-4 -1575 0
-12 -1583 0
-1574 -2 0
1574 1575 1576 1577 1578 1579 1580 1581 1582 1583 1584 1585 0
-1574 -1575 0
-1574 -1576 0
-1574 -1577 0
-1574 -1578 0
-1574 -1579 0
-1574 -1580 0
-1574 -1581 0
-1574 -1582 0
-1574 -1583 0
-1574 -1584 0
-1574 -1585 0
-1575 -1576 0
-1575 -1577 0
-1575 -1578 0
-1575 -1579 0
-1575 -1580 0
-1575 -1581 0
-1575 -1582 0
-1575 -1583 0
-1575 -1584 0
-1575 -1585 0
-1576 -1577 0
-1576 -1578 0
-1576 -1579 0
-1576 -1580 0
-1576 -1581 0
-1576 -1582 0
-1576 -1583 0
-1576 -1584 0
-1576 -1585 0
-1577 -1578 0
-1577 -1579 0
-1577 -1580 0
-1577 -1581 0
-1577 -1582 0
-1577 -1583 0
-1577 -1584 0
-1577 -1585 0
-1578 -1579 0
-1578 -1580 0
-1578 -1581 0
-1578 -1582 0
-1578 -1583 0
-1578 -1584 0
-1578 -1585 0
-1579 -1580 0
-1579 -1581 0
-1579 -1582 0
-1579 -1583 0
-1579 -1584 0
-1579 -1585 0
-1580 -1581 0
-1580 -1582 0
-1580 -1583 0
-1580 -1584 0
-1580 -1585 0
-1581 -1582 0
-1581 -1583 0
-1581 -1584 0
-1581 -1585 0
-1582 -1583 0
-1582 -1584 0
-1582 -1585 0
-1583 -1584 0
-1583 -1585 0
-1584 -1585 0
